2576300
50,61,36,67,8,44,1,47,62,2,60,41,23,24,29,40,6,37,21,20,30,13,34,35,15,58,26,16,57,7,14,64,3,53,19,12,46,0,18,59,48,22,11,31,55,39,4,28,5,10,65,66,63,54,42,45,25,33,51,32,56,9,17,43,49,27,52,38
